/*********************************************
 * OPL 12.6.0.0 Data
 * Author: Adrian Rodriguez Bazaga, Pau Rodriguez Esmerats
 * Creation Date: 06/12/2017 at 23:03:11
 *********************************************/

nNurses=299;
maxConsec=2;
maxPresence=7;
maxHours=5;
minHours=1;
hours=24;
demand= [37 38 77 67 38 77 67 39 57 34 6 7 7 10 10 9 7 6 4 3 49 85 39 69  ];
